% 
% Converted by convert_jobshop2.pl
% 
% original file (orb08) from Google or-tools SVN repository
%   or-tools-read-only/data/jobshop/orb08
%
%
% This data file is to be used with either of these two MiniZinc models:
%    http://www.hakank.org/minizinc/jobshop.mzn
%    http://www.hakank.org/minizinc/jobshop2.mzn
%


 
% +++++++++++++++++++++++++++++
% instance orb08
% +++++++++++++++++++++++++++++
% deadlier 10x10 instance from Bruce Gamble (BRG2)

num_machines = 10;
num_jobs = 10;
max_time = 99999; 

%
% The times for each job.
%
job_times = array2d(1..num_machines, 1..num_jobs,
[
55,74,45,23,76,19,18,61,44,11,
63,43,51,18,42,11,29,52,29,88,
88,31,47,10,62,60,58,29,52,92,
16,71,55,55,9,49,83,54,7,57,
7,41,92,94,46,79,34,38,8,18,
25,5,89,94,14,94,20,23,44,39,
24,21,47,40,94,71,89,75,97,15,
5,7,74,28,72,61,9,53,32,97,
34,52,37,6,94,6,56,41,5,16,
77,74,82,10,29,15,51,65,37,21,
]);


%
% The order each job must be done.
%
job_order = array2d(1..num_machines, 1..num_jobs,
[
0,1,2,3,4,5,6,7,8,9,
0,1,2,3,4,7,6,5,9,8,
2,1,0,4,3,5,6,7,8,9,
2,1,0,4,3,7,6,5,9,8,
1,0,4,3,2,6,5,9,8,7,
1,0,4,3,2,6,5,9,8,7,
1,2,4,0,3,6,7,9,5,8,
1,2,4,0,3,5,7,8,9,6,
0,2,3,4,1,6,7,9,5,8,
0,2,3,4,1,5,7,8,9,6,
]);
